* Problem:    ran13x13-pow2-prescaled
* Class:      LP
* Rows:       195
* Columns:    507
* Non-zeros:  845
* Format:     Free MPS
*
NAME ran13x13-pow2-prescaled
ROWS
 N R0000000
 E R0000001
 E R0000002
 E R0000003
 E R0000004
 E R0000005
 E R0000006
 E R0000007
 E R0000008
 E R0000009
 E R0000010
 E R0000011
 E R0000012
 E R0000013
 E R0000014
 E R0000015
 E R0000016
 E R0000017
 E R0000018
 E R0000019
 E R0000020
 E R0000021
 E R0000022
 E R0000023
 E R0000024
 E R0000025
 E R0000026
 E R0000027
 E R0000028
 E R0000029
 E R0000030
 E R0000031
 E R0000032
 E R0000033
 E R0000034
 E R0000035
 E R0000036
 E R0000037
 E R0000038
 E R0000039
 E R0000040
 E R0000041
 E R0000042
 E R0000043
 E R0000044
 E R0000045
 E R0000046
 E R0000047
 E R0000048
 E R0000049
 E R0000050
 E R0000051
 E R0000052
 E R0000053
 E R0000054
 E R0000055
 E R0000056
 E R0000057
 E R0000058
 E R0000059
 E R0000060
 E R0000061
 E R0000062
 E R0000063
 E R0000064
 E R0000065
 E R0000066
 E R0000067
 E R0000068
 E R0000069
 E R0000070
 E R0000071
 E R0000072
 E R0000073
 E R0000074
 E R0000075
 E R0000076
 E R0000077
 E R0000078
 E R0000079
 E R0000080
 E R0000081
 E R0000082
 E R0000083
 E R0000084
 E R0000085
 E R0000086
 E R0000087
 E R0000088
 E R0000089
 E R0000090
 E R0000091
 E R0000092
 E R0000093
 E R0000094
 E R0000095
 E R0000096
 E R0000097
 E R0000098
 E R0000099
 E R0000100
 E R0000101
 E R0000102
 E R0000103
 E R0000104
 E R0000105
 E R0000106
 E R0000107
 E R0000108
 E R0000109
 E R0000110
 E R0000111
 E R0000112
 E R0000113
 E R0000114
 E R0000115
 E R0000116
 E R0000117
 E R0000118
 E R0000119
 E R0000120
 E R0000121
 E R0000122
 E R0000123
 E R0000124
 E R0000125
 E R0000126
 E R0000127
 E R0000128
 E R0000129
 E R0000130
 E R0000131
 E R0000132
 E R0000133
 E R0000134
 E R0000135
 E R0000136
 E R0000137
 E R0000138
 E R0000139
 E R0000140
 E R0000141
 E R0000142
 E R0000143
 E R0000144
 E R0000145
 E R0000146
 E R0000147
 E R0000148
 E R0000149
 E R0000150
 E R0000151
 E R0000152
 E R0000153
 E R0000154
 E R0000155
 E R0000156
 E R0000157
 E R0000158
 E R0000159
 E R0000160
 E R0000161
 E R0000162
 E R0000163
 E R0000164
 E R0000165
 E R0000166
 E R0000167
 E R0000168
 E R0000169
 E R0000170
 E R0000171
 E R0000172
 E R0000173
 E R0000174
 E R0000175
 E R0000176
 E R0000177
 E R0000178
 E R0000179
 E R0000180
 E R0000181
 E R0000182
 E R0000183
 E R0000184
 E R0000185
 E R0000186
 E R0000187
 E R0000188
 E R0000189
 E R0000190
 E R0000191
 E R0000192
 E R0000193
 E R0000194
 E R0000195
COLUMNS
 c0 R0000000 112 R0000027 16
 c0 R0000014 16 R0000001 16
 c1 R0000000 16 R0000028 16
 c1 R0000015 16 R0000001 16
 c2 R0000000 48 R0000029 16
 c2 R0000016 16 R0000001 16
 c3 R0000000 48 R0000030 16
 c3 R0000017 16 R0000001 16
 c4 R0000000 48 R0000031 16
 c4 R0000018 16 R0000001 16
 c5 R0000000 128 R0000032 16
 c5 R0000019 16 R0000001 16
 c6 R0000000 144 R0000033 16
 c6 R0000020 16 R0000001 16
 c7 R0000000 96 R0000034 16
 c7 R0000021 16 R0000001 16
 c8 R0000000 160 R0000035 16
 c8 R0000022 16 R0000001 16
 c9 R0000000 144 R0000036 16
 c9 R0000023 16 R0000001 16
 c10 R0000000 48 R0000037 16
 c10 R0000024 16 R0000001 16
 c11 R0000000 112 R0000038 16
 c11 R0000025 16 R0000001 16
 c12 R0000000 144 R0000039 16
 c12 R0000026 16 R0000001 16
 c13 R0000000 112 R0000040 16
 c13 R0000014 16 R0000002 16
 c14 R0000000 64 R0000041 16
 c14 R0000015 16 R0000002 16
 c15 R0000000 64 R0000042 16
 c15 R0000016 16 R0000002 16
 c16 R0000000 128 R0000043 16
 c16 R0000017 16 R0000002 16
 c17 R0000000 128 R0000044 16
 c17 R0000018 16 R0000002 16
 c18 R0000000 144 R0000045 16
 c18 R0000019 16 R0000002 16
 c19 R0000000 160 R0000046 16
 c19 R0000020 16 R0000002 16
 c20 R0000000 80 R0000047 16
 c20 R0000021 16 R0000002 16
 c21 R0000000 144 R0000048 16
 c21 R0000022 16 R0000002 16
 c22 R0000000 144 R0000049 16
 c22 R0000023 16 R0000002 16
 c23 R0000000 96 R0000050 16
 c23 R0000024 16 R0000002 16
 c24 R0000000 160 R0000051 16
 c24 R0000025 16 R0000002 16
 c25 R0000000 64 R0000052 16
 c25 R0000026 16 R0000002 16
 c26 R0000000 16 R0000053 16
 c26 R0000014 16 R0000003 16
 c27 R0000000 160 R0000054 16
 c27 R0000015 16 R0000003 16
 c28 R0000000 64 R0000055 16
 c28 R0000016 16 R0000003 16
 c29 R0000000 112 R0000056 16
 c29 R0000017 16 R0000003 16
 c30 R0000000 48 R0000057 16
 c30 R0000018 16 R0000003 16
 c31 R0000000 16 R0000058 16
 c31 R0000019 16 R0000003 16
 c32 R0000000 16 R0000059 16
 c32 R0000020 16 R0000003 16
 c33 R0000000 80 R0000060 16
 c33 R0000021 16 R0000003 16
 c34 R0000000 16 R0000061 16
 c34 R0000022 16 R0000003 16
 c35 R0000000 64 R0000062 16
 c35 R0000023 16 R0000003 16
 c36 R0000000 96 R0000063 16
 c36 R0000024 16 R0000003 16
 c37 R0000000 64 R0000064 16
 c37 R0000025 16 R0000003 16
 c38 R0000000 144 R0000065 16
 c38 R0000026 16 R0000003 16
 c39 R0000000 160 R0000066 16
 c39 R0000014 16 R0000004 16
 c40 R0000000 96 R0000067 16
 c40 R0000015 16 R0000004 16
 c41 R0000000 160 R0000068 16
 c41 R0000016 16 R0000004 16
 c42 R0000000 160 R0000069 16
 c42 R0000017 16 R0000004 16
 c43 R0000000 48 R0000070 16
 c43 R0000018 16 R0000004 16
 c44 R0000000 80 R0000071 16
 c44 R0000019 16 R0000004 16
 c45 R0000000 144 R0000072 16
 c45 R0000020 16 R0000004 16
 c46 R0000000 144 R0000073 16
 c46 R0000021 16 R0000004 16
 c47 R0000000 112 R0000074 16
 c47 R0000022 16 R0000004 16
 c48 R0000000 32 R0000075 16
 c48 R0000023 16 R0000004 16
 c49 R0000000 96 R0000076 16
 c49 R0000024 16 R0000004 16
 c50 R0000000 48 R0000077 16
 c50 R0000025 16 R0000004 16
 c51 R0000000 48 R0000078 16
 c51 R0000026 16 R0000004 16
 c52 R0000000 16 R0000079 16
 c52 R0000014 16 R0000005 16
 c53 R0000000 64 R0000080 16
 c53 R0000015 16 R0000005 16
 c54 R0000000 160 R0000081 16
 c54 R0000016 16 R0000005 16
 c55 R0000000 64 R0000082 16
 c55 R0000017 16 R0000005 16
 c56 R0000000 128 R0000083 16
 c56 R0000018 16 R0000005 16
 c57 R0000000 80 R0000084 16
 c57 R0000019 16 R0000005 16
 c58 R0000000 16 R0000085 16
 c58 R0000020 16 R0000005 16
 c59 R0000000 128 R0000086 16
 c59 R0000021 16 R0000005 16
 c60 R0000000 144 R0000087 16
 c60 R0000022 16 R0000005 16
 c61 R0000000 144 R0000088 16
 c61 R0000023 16 R0000005 16
 c62 R0000000 32 R0000089 16
 c62 R0000024 16 R0000005 16
 c63 R0000000 96 R0000090 16
 c63 R0000025 16 R0000005 16
 c64 R0000000 64 R0000091 16
 c64 R0000026 16 R0000005 16
 c65 R0000000 64 R0000092 16
 c65 R0000014 16 R0000006 16
 c66 R0000000 128 R0000093 16
 c66 R0000015 16 R0000006 16
 c67 R0000000 64 R0000094 16
 c67 R0000016 16 R0000006 16
 c68 R0000000 16 R0000095 16
 c68 R0000017 16 R0000006 16
 c69 R0000000 144 R0000096 16
 c69 R0000018 16 R0000006 16
 c70 R0000000 128 R0000097 16
 c70 R0000019 16 R0000006 16
 c71 R0000000 32 R0000098 16
 c71 R0000020 16 R0000006 16
 c72 R0000000 32 R0000099 16
 c72 R0000021 16 R0000006 16
 c73 R0000000 112 R0000100 16
 c73 R0000022 16 R0000006 16
 c74 R0000000 80 R0000101 16
 c74 R0000023 16 R0000006 16
 c75 R0000000 96 R0000102 16
 c75 R0000024 16 R0000006 16
 c76 R0000000 32 R0000103 16
 c76 R0000025 16 R0000006 16
 c77 R0000000 144 R0000104 16
 c77 R0000026 16 R0000006 16
 c78 R0000000 128 R0000105 16
 c78 R0000014 16 R0000007 16
 c79 R0000000 16 R0000106 16
 c79 R0000015 16 R0000007 16
 c80 R0000000 160 R0000107 16
 c80 R0000016 16 R0000007 16
 c81 R0000000 128 R0000108 16
 c81 R0000017 16 R0000007 16
 c82 R0000000 96 R0000109 16
 c82 R0000018 16 R0000007 16
 c83 R0000000 64 R0000110 16
 c83 R0000019 16 R0000007 16
 c84 R0000000 96 R0000111 16
 c84 R0000020 16 R0000007 16
 c85 R0000000 80 R0000112 16
 c85 R0000021 16 R0000007 16
 c86 R0000000 16 R0000113 16
 c86 R0000022 16 R0000007 16
 c87 R0000000 80 R0000114 16
 c87 R0000023 16 R0000007 16
 c88 R0000000 128 R0000115 16
 c88 R0000024 16 R0000007 16
 c89 R0000000 64 R0000116 16
 c89 R0000025 16 R0000007 16
 c90 R0000000 16 R0000117 16
 c90 R0000026 16 R0000007 16
 c91 R0000000 64 R0000118 16
 c91 R0000014 16 R0000008 16
 c92 R0000000 64 R0000119 16
 c92 R0000015 16 R0000008 16
 c93 R0000000 64 R0000120 16
 c93 R0000016 16 R0000008 16
 c94 R0000000 64 R0000121 16
 c94 R0000017 16 R0000008 16
 c95 R0000000 16 R0000122 16
 c95 R0000018 16 R0000008 16
 c96 R0000000 128 R0000123 16
 c96 R0000019 16 R0000008 16
 c97 R0000000 16 R0000124 16
 c97 R0000020 16 R0000008 16
 c98 R0000000 32 R0000125 16
 c98 R0000021 16 R0000008 16
 c99 R0000000 96 R0000126 16
 c99 R0000022 16 R0000008 16
 c100 R0000000 144 R0000127 16
 c100 R0000023 16 R0000008 16
 c101 R0000000 32 R0000128 16
 c101 R0000024 16 R0000008 16
 c102 R0000000 112 R0000129 16
 c102 R0000025 16 R0000008 16
 c103 R0000000 96 R0000130 16
 c103 R0000026 16 R0000008 16
 c104 R0000000 112 R0000131 16
 c104 R0000014 16 R0000009 16
 c105 R0000000 160 R0000132 16
 c105 R0000015 16 R0000009 16
 c106 R0000000 64 R0000133 16
 c106 R0000016 16 R0000009 16
 c107 R0000000 48 R0000134 16
 c107 R0000017 16 R0000009 16
 c108 R0000000 144 R0000135 16
 c108 R0000018 16 R0000009 16
 c109 R0000000 96 R0000136 16
 c109 R0000019 16 R0000009 16
 c110 R0000000 32 R0000137 16
 c110 R0000020 16 R0000009 16
 c111 R0000000 32 R0000138 16
 c111 R0000021 16 R0000009 16
 c112 R0000000 48 R0000139 16
 c112 R0000022 16 R0000009 16
 c113 R0000000 112 R0000140 16
 c113 R0000023 16 R0000009 16
 c114 R0000000 80 R0000141 16
 c114 R0000024 16 R0000009 16
 c115 R0000000 80 R0000142 16
 c115 R0000025 16 R0000009 16
 c116 R0000000 80 R0000143 16
 c116 R0000026 16 R0000009 16
 c117 R0000000 16 R0000144 16
 c117 R0000014 16 R0000010 16
 c118 R0000000 112 R0000145 16
 c118 R0000015 16 R0000010 16
 c119 R0000000 48 R0000146 16
 c119 R0000016 16 R0000010 16
 c120 R0000000 48 R0000147 16
 c120 R0000017 16 R0000010 16
 c121 R0000000 112 R0000148 16
 c121 R0000018 16 R0000010 16
 c122 R0000000 48 R0000149 16
 c122 R0000019 16 R0000010 16
 c123 R0000000 112 R0000150 16
 c123 R0000020 16 R0000010 16
 c124 R0000000 32 R0000151 16
 c124 R0000021 16 R0000010 16
 c125 R0000000 16 R0000152 16
 c125 R0000022 16 R0000010 16
 c126 R0000000 96 R0000153 16
 c126 R0000023 16 R0000010 16
 c127 R0000000 112 R0000154 16
 c127 R0000024 16 R0000010 16
 c128 R0000000 80 R0000155 16
 c128 R0000025 16 R0000010 16
 c129 R0000000 80 R0000156 16
 c129 R0000026 16 R0000010 16
 c130 R0000000 144 R0000157 16
 c130 R0000014 16 R0000011 16
 c131 R0000000 48 R0000158 16
 c131 R0000015 16 R0000011 16
 c132 R0000000 64 R0000159 16
 c132 R0000016 16 R0000011 16
 c133 R0000000 160 R0000160 16
 c133 R0000017 16 R0000011 16
 c134 R0000000 16 R0000161 16
 c134 R0000018 16 R0000011 16
 c135 R0000000 144 R0000162 16
 c135 R0000019 16 R0000011 16
 c136 R0000000 48 R0000163 16
 c136 R0000020 16 R0000011 16
 c137 R0000000 80 R0000164 16
 c137 R0000021 16 R0000011 16
 c138 R0000000 16 R0000165 16
 c138 R0000022 16 R0000011 16
 c139 R0000000 32 R0000166 16
 c139 R0000023 16 R0000011 16
 c140 R0000000 128 R0000167 16
 c140 R0000024 16 R0000011 16
 c141 R0000000 96 R0000168 16
 c141 R0000025 16 R0000011 16
 c142 R0000000 96 R0000169 16
 c142 R0000026 16 R0000011 16
 c143 R0000000 80 R0000170 16
 c143 R0000014 16 R0000012 16
 c144 R0000000 16 R0000171 16
 c144 R0000015 16 R0000012 16
 c145 R0000000 16 R0000172 16
 c145 R0000016 16 R0000012 16
 c146 R0000000 112 R0000173 16
 c146 R0000017 16 R0000012 16
 c147 R0000000 144 R0000174 16
 c147 R0000018 16 R0000012 16
 c148 R0000000 48 R0000175 16
 c148 R0000019 16 R0000012 16
 c149 R0000000 80 R0000176 16
 c149 R0000020 16 R0000012 16
 c150 R0000000 144 R0000177 16
 c150 R0000021 16 R0000012 16
 c151 R0000000 80 R0000178 16
 c151 R0000022 16 R0000012 16
 c152 R0000000 64 R0000179 16
 c152 R0000023 16 R0000012 16
 c153 R0000000 80 R0000180 16
 c153 R0000024 16 R0000012 16
 c154 R0000000 32 R0000181 16
 c154 R0000025 16 R0000012 16
 c155 R0000000 112 R0000182 16
 c155 R0000026 16 R0000012 16
 c156 R0000000 160 R0000183 16
 c156 R0000014 16 R0000013 16
 c157 R0000000 112 R0000184 16
 c157 R0000015 16 R0000013 16
 c158 R0000000 128 R0000185 16
 c158 R0000016 16 R0000013 16
 c159 R0000000 32 R0000186 16
 c159 R0000017 16 R0000013 16
 c160 R0000000 32 R0000187 16
 c160 R0000018 16 R0000013 16
 c161 R0000000 48 R0000188 16
 c161 R0000019 16 R0000013 16
 c162 R0000000 128 R0000189 16
 c162 R0000020 16 R0000013 16
 c163 R0000000 144 R0000190 16
 c163 R0000021 16 R0000013 16
 c164 R0000000 80 R0000191 16
 c164 R0000022 16 R0000013 16
 c165 R0000000 96 R0000192 16
 c165 R0000023 16 R0000013 16
 c166 R0000000 112 R0000193 16
 c166 R0000024 16 R0000013 16
 c167 R0000000 64 R0000194 16
 c167 R0000025 16 R0000013 16
 c168 R0000000 48 R0000195 16
 c168 R0000026 16 R0000013 16
 c169 R0000000 129 R0000027 -14
 c170 R0000000 138 R0000028 -14
 c171 R0000000 460 R0000029 -26
 c172 R0000000 656 R0000030 -24
 c173 R0000000 2368 R0000031 -24
 c174 R0000000 231 R0000032 -14
 c175 R0000000 428 R0000033 -16
 c176 R0000000 4208 R0000034 -16
 c177 R0000000 195 R0000035 -14
 c178 R0000000 289 R0000036 -14
 c179 R0000000 1312 R0000037 -16
 c180 R0000000 434 R0000038 -18
 c181 R0000000 576 R0000039 -20
 c182 R0000000 103 R0000040 -20
 c183 R0000000 84 R0000041 -21
 c184 R0000000 330 R0000042 -26
 c185 R0000000 1004 R0000043 -24
 c186 R0000000 1288 R0000044 -24
 c187 R0000000 92 R0000045 -21
 c188 R0000000 524 R0000046 -16
 c189 R0000000 3664 R0000047 -16
 c190 R0000000 143 R0000048 -21
 c191 R0000000 237 R0000049 -21
 c192 R0000000 808 R0000050 -16
 c193 R0000000 314 R0000051 -18
 c194 R0000000 920 R0000052 -20
 c195 R0000000 424 R0000053 -22
 c196 R0000000 494 R0000054 -22
 c197 R0000000 564 R0000055 -22
 c198 R0000000 456 R0000056 -24
 c199 R0000000 1200 R0000057 -24
 c200 R0000000 480 R0000058 -22
 c201 R0000000 492 R0000059 -16
 c202 R0000000 4688 R0000060 -16
 c203 R0000000 512 R0000061 -22
 c204 R0000000 486 R0000062 -22
 c205 R0000000 1632 R0000063 -16
 c206 R0000000 402 R0000064 -18
 c207 R0000000 740 R0000065 -20
 c208 R0000000 248 R0000066 -20
 c209 R0000000 292 R0000067 -28
 c210 R0000000 444 R0000068 -26
 c211 R0000000 936 R0000069 -24
 c212 R0000000 1952 R0000070 -24
 c213 R0000000 100 R0000071 -28
 c214 R0000000 780 R0000072 -16
 c215 R0000000 3344 R0000073 -16
 c216 R0000000 218 R0000074 -28
 c217 R0000000 140 R0000075 -28
 c218 R0000000 808 R0000076 -16
 c219 R0000000 566 R0000077 -18
 c220 R0000000 800 R0000078 -20
 c221 R0000000 188 R0000079 -26
 c222 R0000000 428 R0000080 -26
 c223 R0000000 572 R0000081 -26
 c224 R0000000 544 R0000082 -24
 c225 R0000000 1544 R0000083 -24
 c226 R0000000 510 R0000084 -26
 c227 R0000000 724 R0000085 -16
 c228 R0000000 1424 R0000086 -16
 c229 R0000000 240 R0000087 -26
 c230 R0000000 208 R0000088 -26
 c231 R0000000 2384 R0000089 -16
 c232 R0000000 468 R0000090 -18
 c233 R0000000 508 R0000091 -20
 c234 R0000000 402 R0000092 -14
 c235 R0000000 462 R0000093 -14
 c236 R0000000 196 R0000094 -14
 c237 R0000000 904 R0000095 -24
 c238 R0000000 1064 R0000096 -24
 c239 R0000000 410 R0000097 -14
 c240 R0000000 788 R0000098 -16
 c241 R0000000 4752 R0000099 -16
 c242 R0000000 552 R0000100 -14
 c243 R0000000 222 R0000101 -14
 c244 R0000000 1864 R0000102 -16
 c245 R0000000 542 R0000103 -14
 c246 R0000000 684 R0000104 -20
 c247 R0000000 105 R0000105 -20
 c248 R0000000 168 R0000106 -21
 c249 R0000000 522 R0000107 -26
 c250 R0000000 1108 R0000108 -24
 c251 R0000000 2328 R0000109 -24
 c252 R0000000 243 R0000110 -21
 c253 R0000000 760 R0000111 -16
 c254 R0000000 2816 R0000112 -16
 c255 R0000000 138 R0000113 -21
 c256 R0000000 203 R0000114 -21
 c257 R0000000 1256 R0000115 -16
 c258 R0000000 170 R0000116 -18
 c259 R0000000 844 R0000117 -20
 c260 R0000000 462 R0000118 -14
 c261 R0000000 428 R0000119 -14
 c262 R0000000 168 R0000120 -14
 c263 R0000000 508 R0000121 -24
 c264 R0000000 2048 R0000122 -24
 c265 R0000000 178 R0000123 -14
 c266 R0000000 784 R0000124 -16
 c267 R0000000 2480 R0000125 -16
 c268 R0000000 318 R0000126 -14
 c269 R0000000 388 R0000127 -14
 c270 R0000000 1128 R0000128 -16
 c271 R0000000 200 R0000129 -14
 c272 R0000000 1052 R0000130 -20
 c273 R0000000 89 R0000131 -18
 c274 R0000000 93 R0000132 -18
 c275 R0000000 564 R0000133 -26
 c276 R0000000 508 R0000134 -24
 c277 R0000000 2200 R0000135 -24
 c278 R0000000 191 R0000136 -18
 c279 R0000000 1088 R0000137 -16
 c280 R0000000 2880 R0000138 -16
 c281 R0000000 108 R0000139 -18
 c282 R0000000 147 R0000140 -18
 c283 R0000000 1616 R0000141 -16
 c284 R0000000 456 R0000142 -18
 c285 R0000000 1068 R0000143 -20
 c286 R0000000 248 R0000144 -24
 c287 R0000000 346 R0000145 -24
 c288 R0000000 328 R0000146 -24
 c289 R0000000 448 R0000147 -24
 c290 R0000000 2112 R0000148 -24
 c291 R0000000 562 R0000149 -24
 c292 R0000000 748 R0000150 -16
 c293 R0000000 4528 R0000151 -16
 c294 R0000000 452 R0000152 -24
 c295 R0000000 232 R0000153 -24
 c296 R0000000 1384 R0000154 -16
 c297 R0000000 326 R0000155 -18
 c298 R0000000 448 R0000156 -20
 c299 R0000000 104 R0000157 -16
 c300 R0000000 179 R0000158 -16
 c301 R0000000 506 R0000159 -26
 c302 R0000000 1044 R0000160 -24
 c303 R0000000 2272 R0000161 -24
 c304 R0000000 272 R0000162 -16
 c305 R0000000 800 R0000163 -16
 c306 R0000000 1792 R0000164 -16
 c307 R0000000 269 R0000165 -16
 c308 R0000000 213 R0000166 -16
 c309 R0000000 1552 R0000167 -16
 c310 R0000000 376 R0000168 -18
 c311 R0000000 468 R0000169 -20
 c312 R0000000 484 R0000170 -24
 c313 R0000000 512 R0000171 -24
 c314 R0000000 510 R0000172 -24
 c315 R0000000 752 R0000173 -24
 c316 R0000000 2176 R0000174 -24
 c317 R0000000 196 R0000175 -24
 c318 R0000000 1172 R0000176 -16
 c319 R0000000 4608 R0000177 -16
 c320 R0000000 536 R0000178 -24
 c321 R0000000 456 R0000179 -24
 c322 R0000000 1008 R0000180 -16
 c323 R0000000 568 R0000181 -18
 c324 R0000000 588 R0000182 -20
 c325 R0000000 105 R0000183 -20
 c326 R0000000 161 R0000184 -20
 c327 R0000000 180 R0000185 -26
 c328 R0000000 432 R0000186 -24
 c329 R0000000 1704 R0000187 -24
 c330 R0000000 179 R0000188 -20
 c331 R0000000 592 R0000189 -16
 c332 R0000000 2528 R0000190 -16
 c333 R0000000 126 R0000191 -20
 c334 R0000000 189 R0000192 -20
 c335 R0000000 1032 R0000193 -16
 c336 R0000000 200 R0000194 -18
 c337 R0000000 1032 R0000195 -20
 c338 R0000027 16
 c339 R0000028 16
 c340 R0000029 16
 c341 R0000030 16
 c342 R0000031 16
 c343 R0000032 16
 c344 R0000033 16
 c345 R0000034 16
 c346 R0000035 16
 c347 R0000036 16
 c348 R0000037 16
 c349 R0000038 16
 c350 R0000039 16
 c351 R0000040 16
 c352 R0000041 16
 c353 R0000042 16
 c354 R0000043 16
 c355 R0000044 16
 c356 R0000045 16
 c357 R0000046 16
 c358 R0000047 16
 c359 R0000048 16
 c360 R0000049 16
 c361 R0000050 16
 c362 R0000051 16
 c363 R0000052 16
 c364 R0000053 16
 c365 R0000054 16
 c366 R0000055 16
 c367 R0000056 16
 c368 R0000057 16
 c369 R0000058 16
 c370 R0000059 16
 c371 R0000060 16
 c372 R0000061 16
 c373 R0000062 16
 c374 R0000063 16
 c375 R0000064 16
 c376 R0000065 16
 c377 R0000066 16
 c378 R0000067 16
 c379 R0000068 16
 c380 R0000069 16
 c381 R0000070 16
 c382 R0000071 16
 c383 R0000072 16
 c384 R0000073 16
 c385 R0000074 16
 c386 R0000075 16
 c387 R0000076 16
 c388 R0000077 16
 c389 R0000078 16
 c390 R0000079 16
 c391 R0000080 16
 c392 R0000081 16
 c393 R0000082 16
 c394 R0000083 16
 c395 R0000084 16
 c396 R0000085 16
 c397 R0000086 16
 c398 R0000087 16
 c399 R0000088 16
 c400 R0000089 16
 c401 R0000090 16
 c402 R0000091 16
 c403 R0000092 16
 c404 R0000093 16
 c405 R0000094 16
 c406 R0000095 16
 c407 R0000096 16
 c408 R0000097 16
 c409 R0000098 16
 c410 R0000099 16
 c411 R0000100 16
 c412 R0000101 16
 c413 R0000102 16
 c414 R0000103 16
 c415 R0000104 16
 c416 R0000105 16
 c417 R0000106 16
 c418 R0000107 16
 c419 R0000108 16
 c420 R0000109 16
 c421 R0000110 16
 c422 R0000111 16
 c423 R0000112 16
 c424 R0000113 16
 c425 R0000114 16
 c426 R0000115 16
 c427 R0000116 16
 c428 R0000117 16
 c429 R0000118 16
 c430 R0000119 16
 c431 R0000120 16
 c432 R0000121 16
 c433 R0000122 16
 c434 R0000123 16
 c435 R0000124 16
 c436 R0000125 16
 c437 R0000126 16
 c438 R0000127 16
 c439 R0000128 16
 c440 R0000129 16
 c441 R0000130 16
 c442 R0000131 16
 c443 R0000132 16
 c444 R0000133 16
 c445 R0000134 16
 c446 R0000135 16
 c447 R0000136 16
 c448 R0000137 16
 c449 R0000138 16
 c450 R0000139 16
 c451 R0000140 16
 c452 R0000141 16
 c453 R0000142 16
 c454 R0000143 16
 c455 R0000144 16
 c456 R0000145 16
 c457 R0000146 16
 c458 R0000147 16
 c459 R0000148 16
 c460 R0000149 16
 c461 R0000150 16
 c462 R0000151 16
 c463 R0000152 16
 c464 R0000153 16
 c465 R0000154 16
 c466 R0000155 16
 c467 R0000156 16
 c468 R0000157 16
 c469 R0000158 16
 c470 R0000159 16
 c471 R0000160 16
 c472 R0000161 16
 c473 R0000162 16
 c474 R0000163 16
 c475 R0000164 16
 c476 R0000165 16
 c477 R0000166 16
 c478 R0000167 16
 c479 R0000168 16
 c480 R0000169 16
 c481 R0000170 16
 c482 R0000171 16
 c483 R0000172 16
 c484 R0000173 16
 c485 R0000174 16
 c486 R0000175 16
 c487 R0000176 16
 c488 R0000177 16
 c489 R0000178 16
 c490 R0000179 16
 c491 R0000180 16
 c492 R0000181 16
 c493 R0000182 16
 c494 R0000183 16
 c495 R0000184 16
 c496 R0000185 16
 c497 R0000186 16
 c498 R0000187 16
 c499 R0000188 16
 c500 R0000189 16
 c501 R0000190 16
 c502 R0000191 16
 c503 R0000192 16
 c504 R0000193 16
 c505 R0000194 16
 c506 R0000195 16
RHS
 RHS1 R0000001 14 R0000002 21
 RHS1 R0000003 11 R0000004 28
 RHS1 R0000005 13 R0000006 7
 RHS1 R0000007 21 R0000008 7
 RHS1 R0000009 18 R0000010 12
 RHS1 R0000011 16 R0000012 12
 RHS1 R0000013 20 R0000014 20
 RHS1 R0000015 28 R0000016 13
 RHS1 R0000017 6 R0000018 3
 RHS1 R0000019 43 R0000020 4
 RHS1 R0000021 1 R0000022 34
 RHS1 R0000023 32 R0000024 2
 RHS1 R0000025 9 R0000026 5
BOUNDS
 UP BND1 c169 1
 UP BND1 c170 1
 UP BND1 c171 0.5
 UP BND1 c172 0.25
 UP BND1 c173 0.125
 UP BND1 c174 1
 UP BND1 c175 0.25
 UP BND1 c176 0.0625
 UP BND1 c177 1
 UP BND1 c178 1
 UP BND1 c179 0.125
 UP BND1 c180 0.5
 UP BND1 c181 0.25
 UP BND1 c182 1
 UP BND1 c183 1
 UP BND1 c184 0.5
 UP BND1 c185 0.25
 UP BND1 c186 0.125
 UP BND1 c187 1
 UP BND1 c188 0.25
 UP BND1 c189 0.0625
 UP BND1 c190 1
 UP BND1 c191 1
 UP BND1 c192 0.125
 UP BND1 c193 0.5
 UP BND1 c194 0.25
 UP BND1 c195 0.5
 UP BND1 c196 0.5
 UP BND1 c197 0.5
 UP BND1 c198 0.25
 UP BND1 c199 0.125
 UP BND1 c200 0.5
 UP BND1 c201 0.25
 UP BND1 c202 0.0625
 UP BND1 c203 0.5
 UP BND1 c204 0.5
 UP BND1 c205 0.125
 UP BND1 c206 0.5
 UP BND1 c207 0.25
 UP BND1 c208 1
 UP BND1 c209 1
 UP BND1 c210 0.5
 UP BND1 c211 0.25
 UP BND1 c212 0.125
 UP BND1 c213 1
 UP BND1 c214 0.25
 UP BND1 c215 0.0625
 UP BND1 c216 1
 UP BND1 c217 1
 UP BND1 c218 0.125
 UP BND1 c219 0.5
 UP BND1 c220 0.25
 UP BND1 c221 0.5
 UP BND1 c222 0.5
 UP BND1 c223 0.5
 UP BND1 c224 0.25
 UP BND1 c225 0.125
 UP BND1 c226 0.5
 UP BND1 c227 0.25
 UP BND1 c228 0.0625
 UP BND1 c229 0.5
 UP BND1 c230 0.5
 UP BND1 c231 0.125
 UP BND1 c232 0.5
 UP BND1 c233 0.25
 UP BND1 c234 0.5
 UP BND1 c235 0.5
 UP BND1 c236 0.5
 UP BND1 c237 0.25
 UP BND1 c238 0.125
 UP BND1 c239 0.5
 UP BND1 c240 0.25
 UP BND1 c241 0.0625
 UP BND1 c242 0.5
 UP BND1 c243 0.5
 UP BND1 c244 0.125
 UP BND1 c245 0.5
 UP BND1 c246 0.25
 UP BND1 c247 1
 UP BND1 c248 1
 UP BND1 c249 0.5
 UP BND1 c250 0.25
 UP BND1 c251 0.125
 UP BND1 c252 1
 UP BND1 c253 0.25
 UP BND1 c254 0.0625
 UP BND1 c255 1
 UP BND1 c256 1
 UP BND1 c257 0.125
 UP BND1 c258 0.5
 UP BND1 c259 0.25
 UP BND1 c260 0.5
 UP BND1 c261 0.5
 UP BND1 c262 0.5
 UP BND1 c263 0.25
 UP BND1 c264 0.125
 UP BND1 c265 0.5
 UP BND1 c266 0.25
 UP BND1 c267 0.0625
 UP BND1 c268 0.5
 UP BND1 c269 0.5
 UP BND1 c270 0.125
 UP BND1 c271 0.5
 UP BND1 c272 0.25
 UP BND1 c273 1
 UP BND1 c274 1
 UP BND1 c275 0.5
 UP BND1 c276 0.25
 UP BND1 c277 0.125
 UP BND1 c278 1
 UP BND1 c279 0.25
 UP BND1 c280 0.0625
 UP BND1 c281 1
 UP BND1 c282 1
 UP BND1 c283 0.125
 UP BND1 c284 0.5
 UP BND1 c285 0.25
 UP BND1 c286 0.5
 UP BND1 c287 0.5
 UP BND1 c288 0.5
 UP BND1 c289 0.25
 UP BND1 c290 0.125
 UP BND1 c291 0.5
 UP BND1 c292 0.25
 UP BND1 c293 0.0625
 UP BND1 c294 0.5
 UP BND1 c295 0.5
 UP BND1 c296 0.125
 UP BND1 c297 0.5
 UP BND1 c298 0.25
 UP BND1 c299 1
 UP BND1 c300 1
 UP BND1 c301 0.5
 UP BND1 c302 0.25
 UP BND1 c303 0.125
 UP BND1 c304 1
 UP BND1 c305 0.25
 UP BND1 c306 0.0625
 UP BND1 c307 1
 UP BND1 c308 1
 UP BND1 c309 0.125
 UP BND1 c310 0.5
 UP BND1 c311 0.25
 UP BND1 c312 0.5
 UP BND1 c313 0.5
 UP BND1 c314 0.5
 UP BND1 c315 0.25
 UP BND1 c316 0.125
 UP BND1 c317 0.5
 UP BND1 c318 0.25
 UP BND1 c319 0.0625
 UP BND1 c320 0.5
 UP BND1 c321 0.5
 UP BND1 c322 0.125
 UP BND1 c323 0.5
 UP BND1 c324 0.25
 UP BND1 c325 1
 UP BND1 c326 1
 UP BND1 c327 0.5
 UP BND1 c328 0.25
 UP BND1 c329 0.125
 UP BND1 c330 1
 UP BND1 c331 0.25
 UP BND1 c332 0.0625
 UP BND1 c333 1
 UP BND1 c334 1
 UP BND1 c335 0.125
 UP BND1 c336 0.5
 UP BND1 c337 0.25
ENDATA
